problems/csplib-prob056/sonet-models/noch/O2/lingeling/model_2_1-s2ring07-solution000001.eprime-solution
language ESSENCE' 1.0

letting network_ExplicitWithFlagsR6_Flags be [2, 1, 2, 1, 0, 0; int(1..6)]
letting network_ExplicitWithFlagsR6_Values_ExplicitVarSizeWithDummy be
        [[1, 5, 7, 11, 11; int(1..5)], [3, 4, 6, 7, 8; int(1..5)], [4, 5, 6, 9, 10; int(1..5)],
         [11, 11, 11, 11, 11; int(1..5)], [1, 1, 1, 1, 1; int(1..5)], [1, 1, 1, 1, 1; int(1..5)]; int(1..6)]
