problems/csplib-prob056/sonet-models/noch/O2/lingeling/model_2_1-s2ring07-solution000001.solution
language Essence 1.3

letting network be mset({}, {1, 5, 7}, {1, 5, 7}, {3, 4, 6, 7, 8}, {4, 5, 6, 9, 10}, {4, 5, 6, 9, 10})
$ Here is a simple "visualisation" for the value above.
$ 
$  1  5  7
$  1  5  7
$  3  4  6  7  8
$  4  5  6  9 10
$  4  5  6  9 10

